20,0	0,0	15,5	8,3	0,0	0,0	0,0	0,0	0,0	16,9
8,4	19,8	0,0	12,6	5,6	0,0	0,0	9,6	0,0	0,0
0,0	0,0	12,4	0,0	9,3	15,5	0,0	0,0	17,3	0,0
14,7	0,0	17,4	0,0	0,0	0,0	5,3	0,0	0,0	0,0
0,0	12,2	0,0	15,2	10,1	0,0	0,0	19,9	0,0	0,0
0,0	9,2	14,3	0,0	9,8	16,9	0,0	0,0	7,0	0,0
0,0	5,1	0,0	8,1	0,0	0,0	16,5	0,0	0,0	19,6
16,3	0,0	9,2	0,0	0,0	0,0	0,0	0,0	0,0	7,0
0,0	9,5	0,0	14,9	6,0	0,0	0,0	11,2	0,0	0,0
0,0	0,0	16,0	0,0	0,0	10,6	19,3	0,0	0,0	11,1
									
2,8	3,9	2,7	3,5	5,0	4,9	2,6	3,3	4,2	3,1
